
Gurobi 9.0.1 (win64) logging started 11/15/21 11:53:07

Changed value of parameter LogFile to ../results/logs/log_2021_11_15_11_53.csv_1_250.log
   Prev:   Default: 
Changed value of parameter method to 3
   Prev: -1  Min: -1  Max: 5  Default: -1

Gurobi 9.0.1 (win64) logging started 11/15/21 11:53:44

Changed value of parameter LogFile to ../results/logs/log_2021_11_15_11_53.csv_1_250.log
   Prev:   Default: 
Changed value of parameter method to 3
   Prev: -1  Min: -1  Max: 5  Default: -1

Gurobi 9.0.1 (win64) logging started 11/15/21 11:53:50

Changed value of parameter LogFile to ../results/logs/log_2021_11_15_11_53.csv_1_250.log
   Prev:   Default: 
Changed value of parameter method to 3
   Prev: -1  Min: -1  Max: 5  Default: -1
